WARNING: for repeatability, setting FPU to use double precision
============================[ Problem Statistics ]=============================
|                                                                             |
|  Number of variables:       7112640                                         |
|  Number of clauses:        28380366                                         |
|  Parse time:                   6.57 s                                       |
|                                                                             |
c ============================[ Search Statistics ]==============================
c | Conflicts |          ORIGINAL         |          LEARNT          | Progress |
c |           |    Vars  Clauses Literals |    Limit  Clauses Lit/Cl |          |
c ===============================================================================
c Switched to VSIDS.
c Switched to LRB.
c Switched to VSIDS.
c Switched to LRB.
c Switched to VSIDS.
c Switched to LRB.
c Switched to VSIDS.
c Switched to LRB.
c Switched to VSIDS.
c Switched to LRB.
c Switched to VSIDS.
c Switched to LRB.
c Switched to VSIDS.
c Switched to LRB.
c Switched to VSIDS.
c Switched to LRB.
c Switched to VSIDS.
c Switched to LRB.
c Switched to VSIDS.
c Switched to LRB.
c Switched to VSIDS.
c Switched to LRB.
c Switched to VSIDS.
c Switched to LRB.
c Switched to VSIDS.
c Switched to LRB.
c Switched to VSIDS.
c Switched to LRB.
c Switched to VSIDS.
c ===============================================================================
restarts                  : 396
conflicts                 : 55885          (16 /sec)
decisions                 : 9864156        (0.00 % random) (2756 /sec)
propagations              : 7809674506     (2182307 /sec)
conflict literals         : 30201870       (12.08 % deleted)

conflicts w/ DIP found    : 42643          (76.30 % of conflicts)
conflicts w/ dangerous DIP: 0              (0.00 % of conflicts)
conflicts w/ DIP-learning : 3359           (6.01 % of conflicts)
decisions on ext vars     : 4874           (0.05 % of decisions)
total ext vars            : 93          
tried delete ext vars     : 44          
deleted ext vars          : 44          
max ext vars              : 49          

Memory used               : 3995.00 MB
CPU time                  : 3578.63 s
DIP computation time      : 1.68733 s (0.05 % of total time)
ER_sel time               : 0.159501 s
ER_add time               : 0.001689 s
ER_delC time              : 0 s
ER_delV time              : 0.065246 s
ER_sub time               : 0.372342 s
ER_stat time              : 0 s

INDETERMINATE
